p tw 196 38221 2 
1 3 
1 4 
1 5 
1 6 
1 7 
1 8 
1 9 
1 10 
1 11 
1 12 
1 13 
1 14 
1 15 
1 16 
1 29 
1 39 
1 43 
1 55 
1 57 
1 68 
1 71 
1 84 
1 85 
1 92 
1 99 
1 107 
1 113 
1 118 
1 127 
1 133 
1 141 
1 144 
1 155 
1 159 
1 169 
1 178 
1 183 
1 185 
2 3 
2 4 
2 5 
2 6 
2 7 
2 8 
2 9 
2 10 
2 11 
2 12 
2 13 
2 14 
2 16 
2 24 
2 30 
2 33 
2 44 
2 45 
2 58 
2 62 
2 72 
2 82 
2 86 
2 93 
2 100 
2 102 
2 114 
2 120 
2 127 
2 128 
2 142 
2 154 
2 156 
2 161 
2 170 
2 181 
2 184 
2 193 
3 4 
3 5 
3 6 
3 7 
3 8 
3 9 
3 10 
3 11 
3 12 
3 13 
3 14 
3 17 
3 22 
3 31 
3 35 
3 45 
3 48 
3 59 
3 60 
3 71 
3 73 
3 87 
3 97 
3 100 
3 101 
3 115 
3 117 
3 129 
3 140 
3 143 
3 149 
3 157 
3 166 
3 171 
3 179 
3 185 
3 192 
4 5 
4 6 
4 7 
4 8 
4 9 
4 10 
4 11 
4 12 
4 13 
4 14 
4 18 
4 28 
4 32 
4 41 
4 46 
4 54 
4 59 
4 60 
4 74 
4 81 
4 85 
4 88 
4 102 
4 106 
4 116 
4 121 
4 130 
4 132 
4 144 
4 145 
4 158 
4 164 
4 172 
4 175 
4 184 
4 186 
5 6 
5 7 
5 8 
5 9 
5 10 
5 11 
5 12 
5 13 
5 14 
5 19 
5 26 
5 31 
5 33 
5 47 
5 52 
5 61 
5 67 
5 75 
5 78 
5 89 
5 91 
5 103 
5 104 
5 113 
5 117 
5 130 
5 131 
5 145 
5 153 
5 156 
5 159 
5 173 
5 177 
5 187 
5 196 
6 7 
6 8 
6 9 
6 10 
6 11 
6 12 
6 13 
6 14 
6 18 
6 20 
6 34 
6 42 
6 43 
6 48 
6 62 
6 66 
6 75 
6 76 
6 87 
6 90 
6 104 
6 111 
6 118 
6 124 
6 132 
6 137 
6 142 
6 146 
6 160 
6 163 
6 174 
6 176 
6 188 
6 189 
7 8 
7 9 
7 10 
7 11 
7 12 
7 13 
7 14 
7 20 
7 21 
7 29 
7 35 
7 49 
7 53 
7 63 
7 65 
7 72 
7 77 
7 89 
7 91 
7 105 
7 112 
7 119 
7 125 
7 133 
7 138 
7 147 
7 150 
7 158 
7 161 
7 171 
7 175 
7 189 
7 190 
8 9 
8 10 
8 11 
8 12 
8 13 
8 14 
8 22 
8 27 
8 36 
8 40 
8 46 
8 50 
8 58 
8 64 
8 78 
8 79 
8 92 
8 94 
8 105 
8 106 
8 120 
8 126 
8 131 
8 134 
8 148 
8 151 
8 157 
8 162 
8 174 
8 176 
8 183 
8 190 
9 10 
9 11 
9 12 
9 13 
9 14 
9 17 
9 23 
9 32 
9 37 
9 44 
9 51 
9 57 
9 65 
9 79 
9 83 
9 93 
9 98 
9 107 
9 110 
9 121 
9 123 
9 135 
9 136 
9 147 
9 149 
9 162 
9 163 
9 173 
9 177 
9 188 
9 191 
10 11 
10 12 
10 13 
10 14 
10 15 
10 24 
10 37 
10 38 
10 47 
10 52 
10 66 
10 69 
10 77 
10 80 
10 90 
10 94 
10 108 
10 109 
10 116 
10 122 
10 134 
10 136 
10 143 
10 150 
10 164 
10 168 
10 170 
10 178 
10 192 
10 194 
11 12 
11 13 
11 14 
11 19 
11 25 
11 34 
11 39 
11 49 
11 53 
11 67 
11 70 
11 80 
11 81 
11 95 
11 96 
11 101 
11 109 
11 114 
11 123 
11 135 
11 137 
11 148 
11 151 
11 165 
11 167 
11 169 
11 179 
11 186 
11 193 
12 13 
12 14 
12 25 
12 26 
12 38 
12 40 
12 51 
12 54 
12 64 
12 68 
12 74 
12 82 
12 86 
12 96 
12 103 
12 110 
12 119 
12 124 
12 129 
12 138 
12 146 
12 152 
12 155 
12 166 
12 180 
12 182 
12 194 
12 195 
13 14 
13 23 
13 27 
13 36 
13 41 
13 55 
13 56 
13 63 
13 69 
13 76 
13 83 
13 88 
13 97 
13 108 
13 111 
13 115 
13 125 
13 128 
13 139 
13 141 
13 153 
13 165 
13 167 
13 180 
13 181 
13 187 
13 195 
14 21 
14 28 
14 30 
14 42 
14 50 
14 56 
14 61 
14 70 
14 73 
14 84 
14 95 
14 98 
14 99 
14 112 
14 122 
14 126 
14 139 
14 140 
14 152 
14 154 
14 160 
14 168 
14 172 
14 182 
14 191 
14 196 
15 16 
15 17 
15 18 
15 19 
15 20 
15 21 
15 22 
15 23 
15 24 
15 25 
15 26 
15 27 
15 28 
15 29 
15 37 
15 43 
15 47 
15 57 
15 69 
15 71 
15 77 
15 85 
15 90 
15 99 
15 109 
15 113 
15 116 
15 127 
15 134 
15 141 
15 143 
15 155 
15 168 
15 169 
15 170 
15 183 
15 194 
16 17 
16 18 
16 19 
16 20 
16 21 
16 22 
16 23 
16 24 
16 25 
16 26 
16 27 
16 28 
16 30 
16 39 
16 44 
16 55 
16 58 
16 68 
16 72 
16 84 
16 86 
16 92 
16 100 
16 107 
16 114 
16 118 
16 128 
16 133 
16 142 
16 144 
16 156 
16 159 
16 170 
16 178 
16 184 
16 185 
17 18 
17 19 
17 20 
17 21 
17 22 
17 23 
17 24 
17 25 
17 26 
17 27 
17 28 
17 31 
17 32 
17 44 
17 45 
17 57 
17 59 
17 73 
17 83 
17 87 
17 98 
17 101 
17 110 
17 115 
17 123 
17 129 
17 136 
17 143 
17 147 
17 157 
17 162 
17 171 
17 173 
17 185 
17 188 
18 19 
18 20 
18 21 
18 22 
18 23 
18 24 
18 25 
18 26 
18 27 
18 28 
18 32 
18 42 
18 43 
18 46 
18 60 
18 66 
18 74 
18 75 
18 87 
18 88 
18 102 
18 111 
18 116 
18 124 
18 130 
18 137 
18 142 
18 144 
18 158 
18 163 
18 172 
18 176 
18 186 
18 189 
19 20 
19 21 
19 22 
19 23 
19 24 
19 25 
19 26 
19 27 
19 28 
19 33 
19 34 
19 47 
19 49 
19 61 
19 70 
19 75 
19 80 
19 89 
19 96 
19 101 
19 103 
19 114 
19 117 
19 131 
19 135 
19 145 
19 148 
19 159 
19 167 
19 169 
19 173 
19 186 
19 187 
20 21 
20 22 
20 23 
20 24 
20 25 
20 26 
20 27 
20 28 
20 29 
20 34 
20 48 
20 53 
20 62 
20 65 
20 72 
20 76 
20 89 
20 90 
20 104 
20 112 
20 118 
20 125 
20 132 
20 138 
20 146 
20 150 
20 158 
20 160 
20 171 
20 174 
20 188 
20 190 
21 22 
21 23 
21 24 
21 25 
21 26 
21 27 
21 28 
21 30 
21 35 
21 49 
21 50 
21 61 
21 63 
21 73 
21 77 
21 91 
21 95 
21 99 
21 105 
21 119 
21 122 
21 133 
21 139 
21 147 
21 152 
21 160 
21 161 
21 172 
21 175 
21 189 
21 191 
22 23 
22 24 
22 25 
22 26 
22 27 
22 28 
22 35 
22 36 
22 48 
22 50 
22 60 
22 64 
22 71 
22 78 
22 92 
22 97 
22 100 
22 106 
22 117 
22 120 
22 134 
22 140 
22 148 
22 149 
22 162 
22 166 
22 176 
22 179 
22 190 
22 192 
23 24 
23 25 
23 26 
23 27 
23 28 
23 36 
23 37 
23 51 
23 56 
23 63 
23 65 
23 76 
23 79 
23 88 
23 93 
23 107 
23 108 
23 115 
23 121 
23 128 
23 135 
23 141 
23 149 
23 163 
23 165 
23 177 
23 180 
23 187 
23 191 
24 25 
24 26 
24 27 
24 28 
24 33 
24 38 
24 45 
24 52 
24 62 
24 66 
24 80 
24 82 
24 93 
24 94 
24 102 
24 108 
24 120 
24 122 
24 127 
24 136 
24 150 
24 154 
24 161 
24 164 
24 178 
24 181 
24 192 
24 193 
25 26 
25 27 
25 28 
25 38 
25 39 
25 51 
25 53 
25 64 
25 67 
25 74 
25 81 
25 86 
25 95 
25 103 
25 109 
25 119 
25 123 
25 129 
25 137 
25 146 
25 151 
25 155 
25 165 
25 179 
25 182 
25 193 
25 195 
26 27 
26 28 
26 31 
26 40 
26 52 
26 54 
26 67 
26 68 
26 78 
26 82 
26 91 
26 96 
26 104 
26 110 
26 113 
26 124 
26 130 
26 138 
26 152 
26 153 
26 156 
26 166 
26 177 
26 180 
26 194 
26 196 
27 28 
27 40 
27 41 
27 46 
27 55 
27 58 
27 69 
27 79 
27 83 
27 94 
27 97 
27 105 
27 111 
27 125 
27 126 
27 131 
27 139 
27 151 
27 153 
27 157 
27 167 
27 174 
27 181 
27 183 
27 195 
28 41 
28 42 
28 54 
28 56 
28 59 
28 70 
28 81 
28 84 
28 85 
28 98 
28 106 
28 112 
28 121 
28 126 
28 132 
28 140 
28 145 
28 154 
28 164 
28 168 
28 175 
28 182 
28 184 
28 196 
29 30 
29 31 
29 32 
29 33 
29 34 
29 35 
29 36 
29 37 
29 38 
29 39 
29 40 
29 41 
29 42 
29 43 
29 53 
29 57 
29 65 
29 71 
29 72 
29 85 
29 89 
29 99 
29 112 
29 113 
29 125 
29 127 
29 138 
29 141 
29 150 
29 155 
29 158 
29 169 
29 171 
29 183 
29 190 
30 31 
30 32 
30 33 
30 34 
30 35 
30 36 
30 37 
30 38 
30 39 
30 40 
30 41 
30 42 
30 44 
30 50 
30 58 
30 61 
30 72 
30 73 
30 86 
30 95 
30 99 
30 100 
30 114 
30 122 
30 128 
30 139 
30 142 
30 152 
30 156 
30 160 
30 170 
30 172 
30 184 
30 191 
31 32 
31 33 
31 34 
31 35 
31 36 
31 37 
31 38 
31 39 
31 40 
31 41 
31 42 
31 45 
31 52 
31 59 
31 67 
31 73 
31 78 
31 87 
31 91 
31 101 
31 104 
31 113 
31 115 
31 129 
31 130 
31 143 
31 153 
31 156 
31 157 
31 171 
31 177 
31 185 
31 196 
32 33 
32 34 
32 35 
32 36 
32 37 
32 38 
32 39 
32 40 
32 41 
32 42 
32 44 
32 46 
32 57 
32 60 
32 74 
32 83 
32 88 
32 98 
32 102 
32 110 
32 116 
32 123 
32 130 
32 136 
32 144 
32 147 
32 158 
32 162 
32 172 
32 173 
32 186 
32 188 
33 34 
33 35 
33 36 
33 37 
33 38 
33 39 
33 40 
33 41 
33 42 
33 45 
33 47 
33 61 
33 62 
33 75 
33 82 
33 89 
33 93 
33 102 
33 103 
33 117 
33 120 
33 127 
33 131 
33 145 
33 154 
33 159 
33 161 
33 173 
33 181 
33 187 
33 193 
34 35 
34 36 
34 37 
34 38 
34 39 
34 40 
34 41 
34 42 
34 48 
34 49 
34 62 
34 70 
34 76 
34 80 
34 90 
34 96 
34 101 
34 104 
34 114 
34 118 
34 132 
34 135 
34 146 
34 148 
34 160 
34 167 
34 169 
34 174 
34 186 
34 188 
35 36 
35 37 
35 38 
35 39 
35 40 
35 41 
35 42 
35 48 
35 49 
35 60 
35 63 
35 71 
35 77 
35 91 
35 97 
35 100 
35 105 
35 117 
35 119 
35 133 
35 140 
35 147 
35 149 
35 161 
35 166 
35 175 
35 179 
35 189 
35 192 
36 37 
36 38 
36 39 
36 40 
36 41 
36 42 
36 50 
36 56 
36 63 
36 64 
36 76 
36 78 
36 88 
36 92 
36 106 
36 108 
36 115 
36 120 
36 128 
36 134 
36 141 
36 148 
36 162 
36 165 
36 176 
36 180 
36 187 
36 190 
37 38 
37 39 
37 40 
37 41 
37 42 
37 47 
37 51 
37 65 
37 69 
37 77 
37 79 
37 90 
37 93 
37 107 
37 109 
37 116 
37 121 
37 134 
37 135 
37 143 
37 149 
37 163 
37 168 
37 170 
37 177 
37 191 
37 194 
38 39 
38 40 
38 41 
38 42 
38 51 
38 52 
38 64 
38 66 
38 74 
38 80 
38 86 
38 94 
38 103 
38 108 
38 119 
38 122 
38 129 
38 136 
38 146 
38 150 
38 155 
38 164 
38 178 
38 182 
38 192 
38 195 
39 40 
39 41 
39 42 
39 53 
39 55 
39 67 
39 68 
39 81 
39 84 
39 92 
39 95 
39 107 
39 109 
39 118 
39 123 
39 133 
39 137 
39 144 
39 151 
39 159 
39 165 
39 178 
39 179 
39 185 
39 193 
40 41 
40 42 
40 46 
40 54 
40 58 
40 68 
40 79 
40 82 
40 94 
40 96 
40 105 
40 110 
40 124 
40 126 
40 131 
40 138 
40 151 
40 152 
40 157 
40 166 
40 174 
40 180 
40 183 
40 194 
41 42 
41 54 
41 55 
41 59 
41 69 
41 81 
41 83 
41 85 
41 97 
41 106 
41 111 
41 121 
41 125 
41 132 
41 139 
41 145 
41 153 
41 164 
41 167 
41 175 
41 181 
41 184 
41 195 
42 43 
42 56 
42 66 
42 70 
42 75 
42 84 
42 87 
42 98 
42 111 
42 112 
42 124 
42 126 
42 137 
42 140 
42 142 
42 154 
42 163 
42 168 
42 176 
42 182 
42 189 
42 196 
43 44 
43 45 
43 46 
43 47 
43 48 
43 49 
43 50 
43 51 
43 52 
43 53 
43 54 
43 55 
43 56 
43 57 
43 66 
43 71 
43 75 
43 85 
43 87 
43 99 
43 111 
43 113 
43 124 
43 127 
43 137 
43 141 
43 142 
43 155 
43 163 
43 169 
43 176 
43 183 
43 189 
44 45 
44 46 
44 47 
44 48 
44 49 
44 50 
44 51 
44 52 
44 53 
44 54 
44 55 
44 56 
44 57 
44 58 
44 72 
44 83 
44 86 
44 98 
44 100 
44 110 
44 114 
44 123 
44 128 
44 136 
44 142 
44 147 
44 156 
44 162 
44 170 
44 173 
44 184 
44 188 
45 46 
45 47 
45 48 
45 49 
45 50 
45 51 
45 52 
45 53 
45 54 
45 55 
45 56 
45 59 
45 62 
45 73 
45 82 
45 87 
45 93 
45 101 
45 102 
45 115 
45 120 
45 127 
45 129 
45 143 
45 154 
45 157 
45 161 
45 171 
45 181 
45 185 
45 193 
46 47 
46 48 
46 49 
46 50 
46 51 
46 52 
46 53 
46 54 
46 55 
46 56 
46 58 
46 60 
46 74 
46 79 
46 88 
46 94 
46 102 
46 105 
46 116 
46 126 
46 130 
46 131 
46 144 
46 151 
46 157 
46 158 
46 172 
46 174 
46 183 
46 186 
47 48 
47 49 
47 50 
47 51 
47 52 
47 53 
47 54 
47 55 
47 56 
47 61 
47 69 
47 75 
47 77 
47 89 
47 90 
47 103 
47 109 
47 116 
47 117 
47 131 
47 134 
47 143 
47 145 
47 159 
47 168 
47 170 
47 173 
47 187 
47 194 
48 49 
48 50 
48 51 
48 52 
48 53 
48 54 
48 55 
48 56 
48 60 
48 62 
48 71 
48 76 
48 90 
48 97 
48 100 
48 104 
48 117 
48 118 
48 132 
48 140 
48 146 
48 149 
48 160 
48 166 
48 174 
48 179 
48 188 
48 192 
49 50 
49 51 
49 52 
49 53 
49 54 
49 55 
49 56 
49 63 
49 70 
49 77 
49 80 
49 91 
49 96 
49 101 
49 105 
49 114 
49 119 
49 133 
49 135 
49 147 
49 148 
49 161 
49 167 
49 169 
49 175 
49 186 
49 189 
50 51 
50 52 
50 53 
50 54 
50 55 
50 56 
50 61 
50 64 
50 73 
50 78 
50 92 
50 95 
50 99 
50 106 
50 120 
50 122 
50 134 
50 139 
50 148 
50 152 
50 160 
50 162 
50 172 
50 176 
50 190 
50 191 
51 52 
51 53 
51 54 
51 55 
51 56 
51 64 
51 65 
51 74 
51 79 
51 86 
51 93 
51 103 
51 107 
51 119 
51 121 
51 129 
51 135 
51 146 
51 149 
51 155 
51 163 
51 177 
51 182 
51 191 
51 195 
52 53 
52 54 
52 55 
52 56 
52 66 
52 67 
52 78 
52 80 
52 91 
52 94 
52 104 
52 108 
52 113 
52 122 
52 130 
52 136 
52 150 
52 153 
52 156 
52 164 
52 177 
52 178 
52 192 
52 196 
53 54 
53 55 
53 56 
53 65 
53 67 
53 72 
53 81 
53 89 
53 95 
53 109 
53 112 
53 123 
53 125 
53 137 
53 138 
53 150 
53 151 
53 158 
53 165 
53 171 
53 179 
53 190 
53 193 
54 55 
54 56 
54 59 
54 68 
54 81 
54 82 
54 85 
54 96 
54 106 
54 110 
54 121 
54 124 
54 132 
54 138 
54 145 
54 152 
54 164 
54 166 
54 175 
54 180 
54 184 
54 194 
55 56 
55 68 
55 69 
55 83 
55 84 
55 92 
55 97 
55 107 
55 111 
55 118 
55 125 
55 133 
55 139 
55 144 
55 153 
55 159 
55 167 
55 178 
55 181 
55 185 
55 195 
56 63 
56 70 
56 76 
56 84 
56 88 
56 98 
56 108 
56 112 
56 115 
56 126 
56 128 
56 140 
56 141 
56 154 
56 165 
56 168 
56 180 
56 182 
56 187 
56 196 
57 58 
57 59 
57 60 
57 61 
57 62 
57 63 
57 64 
57 65 
57 66 
57 67 
57 68 
57 69 
57 70 
57 71 
57 83 
57 85 
57 98 
57 99 
57 110 
57 113 
57 123 
57 127 
57 136 
57 141 
57 147 
57 155 
57 162 
57 169 
57 173 
57 183 
57 188 
58 59 
58 60 
58 61 
58 62 
58 63 
58 64 
58 65 
58 66 
58 67 
58 68 
58 69 
58 70 
58 72 
58 79 
58 86 
58 94 
58 100 
58 105 
58 114 
58 126 
58 128 
58 131 
58 142 
58 151 
58 156 
58 157 
58 170 
58 174 
58 183 
58 184 
59 60 
59 61 
59 62 
59 63 
59 64 
59 65 
59 66 
59 67 
59 68 
59 69 
59 70 
59 73 
59 81 
59 85 
59 87 
59 101 
59 106 
59 115 
59 121 
59 129 
59 132 
59 143 
59 145 
59 157 
59 164 
59 171 
59 175 
59 184 
59 185 
60 61 
60 62 
60 63 
60 64 
60 65 
60 66 
60 67 
60 68 
60 69 
60 70 
60 71 
60 74 
60 88 
60 97 
60 100 
60 102 
60 116 
60 117 
60 130 
60 140 
60 144 
60 149 
60 158 
60 166 
60 172 
60 179 
60 186 
60 192 
61 62 
61 63 
61 64 
61 65 
61 66 
61 67 
61 68 
61 69 
61 70 
61 73 
61 75 
61 89 
61 95 
61 99 
61 103 
61 117 
61 122 
61 131 
61 139 
61 145 
61 152 
61 159 
61 160 
61 172 
61 173 
61 187 
61 191 
62 63 
62 64 
62 65 
62 66 
62 67 
62 68 
62 69 
62 70 
62 76 
62 82 
62 90 
62 93 
62 102 
62 104 
62 118 
62 120 
62 127 
62 132 
62 146 
62 154 
62 160 
62 161 
62 174 
62 181 
62 188 
62 193 
63 64 
63 65 
63 66 
63 67 
63 68 
63 69 
63 70 
63 76 
63 77 
63 88 
63 91 
63 105 
63 108 
63 115 
63 119 
63 128 
63 133 
63 141 
63 147 
63 161 
63 165 
63 175 
63 180 
63 187 
63 189 
64 65 
64 66 
64 67 
64 68 
64 69 
64 70 
64 74 
64 78 
64 86 
64 92 
64 103 
64 106 
64 119 
64 120 
64 129 
64 134 
64 146 
64 148 
64 155 
64 162 
64 176 
64 182 
64 190 
64 195 
65 66 
65 67 
65 68 
65 69 
65 70 
65 72 
65 79 
65 89 
65 93 
65 107 
65 112 
65 121 
65 125 
65 135 
65 138 
65 149 
65 150 
65 158 
65 163 
65 171 
65 177 
65 190 
65 191 
66 67 
66 68 
66 69 
66 70 
66 75 
66 80 
66 87 
66 94 
66 108 
66 111 
66 122 
66 124 
66 136 
66 137 
66 142 
66 150 
66 163 
66 164 
66 176 
66 178 
66 189 
66 192 
67 68 
67 69 
67 70 
67 78 
67 81 
67 91 
67 95 
67 104 
67 109 
67 113 
67 123 
67 130 
67 137 
67 151 
67 153 
67 156 
67 165 
67 177 
67 179 
67 193 
67 196 
68 69 
68 70 
68 82 
68 84 
68 92 
68 96 
68 107 
68 110 
68 118 
68 124 
68 133 
68 138 
68 144 
68 152 
68 159 
68 166 
68 178 
68 180 
68 185 
68 194 
69 70 
69 77 
69 83 
69 90 
69 97 
69 109 
69 111 
69 116 
69 125 
69 134 
69 139 
69 143 
69 153 
69 167 
69 168 
69 170 
69 181 
69 194 
69 195 
70 80 
70 84 
70 96 
70 98 
70 101 
70 112 
70 114 
70 126 
70 135 
70 140 
70 148 
70 154 
70 167 
70 168 
70 169 
70 182 
70 186 
70 196 
71 72 
71 73 
71 74 
71 75 
71 76 
71 77 
71 78 
71 79 
71 80 
71 81 
71 82 
71 83 
71 84 
71 85 
71 97 
71 99 
71 100 
71 113 
71 117 
71 127 
71 140 
71 141 
71 149 
71 155 
71 166 
71 169 
71 179 
71 183 
71 192 
72 73 
72 74 
72 75 
72 76 
72 77 
72 78 
72 79 
72 80 
72 81 
72 82 
72 83 
72 84 
72 86 
72 89 
72 100 
72 112 
72 114 
72 125 
72 128 
72 138 
72 142 
72 150 
72 156 
72 158 
72 170 
72 171 
72 184 
72 190 
73 74 
73 75 
73 76 
73 77 
73 78 
73 79 
73 80 
73 81 
73 82 
73 83 
73 84 
73 87 
73 95 
73 99 
73 101 
73 115 
73 122 
73 129 
73 139 
73 143 
73 152 
73 157 
73 160 
73 171 
73 172 
73 185 
73 191 
74 75 
74 76 
74 77 
74 78 
74 79 
74 80 
74 81 
74 82 
74 83 
74 84 
74 86 
74 88 
74 102 
74 103 
74 116 
74 119 
74 129 
74 130 
74 144 
74 146 
74 155 
74 158 
74 172 
74 182 
74 186 
74 195 
75 76 
75 77 
75 78 
75 79 
75 80 
75 81 
75 82 
75 83 
75 84 
75 87 
75 89 
75 103 
75 111 
75 117 
75 124 
75 131 
75 137 
75 142 
75 145 
75 159 
75 163 
75 173 
75 176 
75 187 
75 189 
76 77 
76 78 
76 79 
76 80 
76 81 
76 82 
76 83 
76 84 
76 88 
76 90 
76 104 
76 108 
76 115 
76 118 
76 128 
76 132 
76 141 
76 146 
76 160 
76 165 
76 174 
76 180 
76 187 
76 188 
77 78 
77 79 
77 80 
77 81 
77 82 
77 83 
77 84 
77 90 
77 91 
77 105 
77 109 
77 116 
77 119 
77 133 
77 134 
77 143 
77 147 
77 161 
77 168 
77 170 
77 175 
77 189 
77 194 
78 79 
78 80 
78 81 
78 82 
78 83 
78 84 
78 91 
78 92 
78 104 
78 106 
78 113 
78 120 
78 130 
78 134 
78 148 
78 153 
78 156 
78 162 
78 176 
78 177 
78 190 
78 196 
79 80 
79 81 
79 82 
79 83 
79 84 
79 93 
79 94 
79 105 
79 107 
79 121 
79 126 
79 131 
79 135 
79 149 
79 151 
79 157 
79 163 
79 174 
79 177 
79 183 
79 191 
80 81 
80 82 
80 83 
80 84 
80 94 
80 96 
80 101 
80 108 
80 114 
80 122 
80 135 
80 136 
80 148 
80 150 
80 164 
80 167 
80 169 
80 178 
80 186 
80 192 
81 82 
81 83 
81 84 
81 85 
81 95 
81 106 
81 109 
81 121 
81 123 
81 132 
81 137 
81 145 
81 151 
81 164 
81 165 
81 175 
81 179 
81 184 
81 193 
82 83 
82 84 
82 93 
82 96 
82 102 
82 110 
82 120 
82 124 
82 127 
82 138 
82 152 
82 154 
82 161 
82 166 
82 180 
82 181 
82 193 
82 194 
83 84 
83 97 
83 98 
83 110 
83 111 
83 123 
83 125 
83 136 
83 139 
83 147 
83 153 
83 162 
83 167 
83 173 
83 181 
83 188 
83 195 
84 92 
84 98 
84 107 
84 112 
84 118 
84 126 
84 133 
84 140 
84 144 
84 154 
84 159 
84 168 
84 178 
84 182 
84 185 
84 196 
85 86 
85 87 
85 88 
85 89 
85 90 
85 91 
85 92 
85 93 
85 94 
85 95 
85 96 
85 97 
85 98 
85 99 
85 106 
85 113 
85 121 
85 127 
85 132 
85 141 
85 145 
85 155 
85 164 
85 169 
85 175 
85 183 
85 184 
86 87 
86 88 
86 89 
86 90 
86 91 
86 92 
86 93 
86 94 
86 95 
86 96 
86 97 
86 98 
86 100 
86 103 
86 114 
86 119 
86 128 
86 129 
86 142 
86 146 
86 155 
86 156 
86 170 
86 182 
86 184 
86 195 
87 88 
87 89 
87 90 
87 91 
87 92 
87 93 
87 94 
87 95 
87 96 
87 97 
87 98 
87 101 
87 111 
87 115 
87 124 
87 129 
87 137 
87 142 
87 143 
87 157 
87 163 
87 171 
87 176 
87 185 
87 189 
88 89 
88 90 
88 91 
88 92 
88 93 
88 94 
88 95 
88 96 
88 97 
88 98 
88 102 
88 108 
88 115 
88 116 
88 128 
88 130 
88 141 
88 144 
88 158 
88 165 
88 172 
88 180 
88 186 
88 187 
89 90 
89 91 
89 92 
89 93 
89 94 
89 95 
89 96 
89 97 
89 98 
89 103 
89 112 
89 117 
89 125 
89 131 
89 138 
89 145 
89 150 
89 158 
89 159 
89 171 
89 173 
89 187 
89 190 
90 91 
90 92 
90 93 
90 94 
90 95 
90 96 
90 97 
90 98 
90 104 
90 109 
90 116 
90 118 
90 132 
90 134 
90 143 
90 146 
90 160 
90 168 
90 170 
90 174 
90 188 
90 194 
91 92 
91 93 
91 94 
91 95 
91 96 
91 97 
91 98 
91 104 
91 105 
91 113 
91 119 
91 130 
91 133 
91 147 
91 153 
91 156 
91 161 
91 175 
91 177 
91 189 
91 196 
92 93 
92 94 
92 95 
92 96 
92 97 
92 98 
92 106 
92 107 
92 118 
92 120 
92 133 
92 134 
92 144 
92 148 
92 159 
92 162 
92 176 
92 178 
92 185 
92 190 
93 94 
93 95 
93 96 
93 97 
93 98 
93 102 
93 107 
93 120 
93 121 
93 127 
93 135 
93 149 
93 154 
93 161 
93 163 
93 177 
93 181 
93 191 
93 193 
94 95 
94 96 
94 97 
94 98 
94 105 
94 108 
94 122 
94 126 
94 131 
94 136 
94 150 
94 151 
94 157 
94 164 
94 174 
94 178 
94 183 
94 192 
95 96 
95 97 
95 98 
95 99 
95 109 
95 122 
95 123 
95 137 
95 139 
95 151 
95 152 
95 160 
95 165 
95 172 
95 179 
95 191 
95 193 
96 97 
96 98 
96 101 
96 110 
96 114 
96 124 
96 135 
96 138 
96 148 
96 152 
96 166 
96 167 
96 169 
96 180 
96 186 
96 194 
97 98 
97 100 
97 111 
97 117 
97 125 
97 139 
97 140 
97 149 
97 153 
97 166 
97 167 
97 179 
97 181 
97 192 
97 195 
98 110 
98 112 
98 123 
98 126 
98 136 
98 140 
98 147 
98 154 
98 162 
98 168 
98 173 
98 182 
98 188 
98 196 
99 100 
99 101 
99 102 
99 103 
99 104 
99 105 
99 106 
99 107 
99 108 
99 109 
99 110 
99 111 
99 112 
99 113 
99 122 
99 127 
99 139 
99 141 
99 152 
99 155 
99 160 
99 169 
99 172 
99 183 
99 191 
100 101 
100 102 
100 103 
100 104 
100 105 
100 106 
100 107 
100 108 
100 109 
100 110 
100 111 
100 112 
100 114 
100 117 
100 128 
100 140 
100 142 
100 149 
100 156 
100 166 
100 170 
100 179 
100 184 
100 192 
101 102 
101 103 
101 104 
101 105 
101 106 
101 107 
101 108 
101 109 
101 110 
101 111 
101 112 
101 114 
101 115 
101 129 
101 135 
101 143 
101 148 
101 157 
101 167 
101 169 
101 171 
101 185 
101 186 
102 103 
102 104 
102 105 
102 106 
102 107 
102 108 
102 109 
102 110 
102 111 
102 112 
102 116 
102 120 
102 127 
102 130 
102 144 
102 154 
102 158 
102 161 
102 172 
102 181 
102 186 
102 193 
103 104 
103 105 
103 106 
103 107 
103 108 
103 109 
103 110 
103 111 
103 112 
103 117 
103 119 
103 129 
103 131 
103 145 
103 146 
103 155 
103 159 
103 173 
103 182 
103 187 
103 195 
104 105 
104 106 
104 107 
104 108 
104 109 
104 110 
104 111 
104 112 
104 113 
104 118 
104 130 
104 132 
104 146 
104 153 
104 156 
104 160 
104 174 
104 177 
104 188 
104 196 
105 106 
105 107 
105 108 
105 109 
105 110 
105 111 
105 112 
105 119 
105 126 
105 131 
105 133 
105 147 
105 151 
105 157 
105 161 
105 174 
105 175 
105 183 
105 189 
106 107 
106 108 
106 109 
106 110 
106 111 
106 112 
106 120 
106 121 
106 132 
106 134 
106 145 
106 148 
106 162 
106 164 
106 175 
106 176 
106 184 
106 190 
107 108 
107 109 
107 110 
107 111 
107 112 
107 118 
107 121 
107 133 
107 135 
107 144 
107 149 
107 159 
107 163 
107 177 
107 178 
107 185 
107 191 
108 109 
108 110 
108 111 
108 112 
108 115 
108 122 
108 128 
108 136 
108 141 
108 150 
108 164 
108 165 
108 178 
108 180 
108 187 
108 192 
109 110 
109 111 
109 112 
109 116 
109 123 
109 134 
109 137 
109 143 
109 151 
109 165 
109 168 
109 170 
109 179 
109 193 
109 194 
110 111 
110 112 
110 123 
110 124 
110 136 
110 138 
110 147 
110 152 
110 162 
110 166 
110 173 
110 180 
110 188 
110 194 
111 112 
111 124 
111 125 
111 137 
111 139 
111 142 
111 153 
111 163 
111 167 
111 176 
111 181 
111 189 
111 195 
112 125 
112 126 
112 138 
112 140 
112 150 
112 154 
112 158 
112 168 
112 171 
112 182 
112 190 
112 196 
113 114 
113 115 
113 116 
113 117 
113 118 
113 119 
113 120 
113 121 
113 122 
113 123 
113 124 
113 125 
113 126 
113 127 
113 130 
113 141 
113 153 
113 155 
113 156 
113 169 
113 177 
113 183 
113 196 
114 115 
114 116 
114 117 
114 118 
114 119 
114 120 
114 121 
114 122 
114 123 
114 124 
114 125 
114 126 
114 128 
114 135 
114 142 
114 148 
114 156 
114 167 
114 169 
114 170 
114 184 
114 186 
115 116 
115 117 
115 118 
115 119 
115 120 
115 121 
115 122 
115 123 
115 124 
115 125 
115 126 
115 128 
115 129 
115 141 
115 143 
115 157 
115 165 
115 171 
115 180 
115 185 
115 187 
116 117 
116 118 
116 119 
116 120 
116 121 
116 122 
116 123 
116 124 
116 125 
116 126 
116 130 
116 134 
116 143 
116 144 
116 158 
116 168 
116 170 
116 172 
116 186 
116 194 
117 118 
117 119 
117 120 
117 121 
117 122 
117 123 
117 124 
117 125 
117 126 
117 131 
117 140 
117 145 
117 149 
117 159 
117 166 
117 173 
117 179 
117 187 
117 192 
118 119 
118 120 
118 121 
118 122 
118 123 
118 124 
118 125 
118 126 
118 132 
118 133 
118 144 
118 146 
118 159 
118 160 
118 174 
118 178 
118 185 
118 188 
119 120 
119 121 
119 122 
119 123 
119 124 
119 125 
119 126 
119 129 
119 133 
119 146 
119 147 
119 155 
119 161 
119 175 
119 182 
119 189 
119 195 
120 121 
120 122 
120 123 
120 124 
120 125 
120 126 
120 127 
120 134 
120 148 
120 154 
120 161 
120 162 
120 176 
120 181 
120 190 
120 193 
121 122 
121 123 
121 124 
121 125 
121 126 
121 132 
121 135 
121 145 
121 149 
121 163 
121 164 
121 175 
121 177 
121 184 
121 191 
122 123 
122 124 
122 125 
122 126 
122 136 
122 139 
122 150 
122 152 
122 160 
122 164 
122 172 
122 178 
122 191 
122 192 
123 124 
123 125 
123 126 
123 136 
123 137 
123 147 
123 151 
123 162 
123 165 
123 173 
123 179 
123 188 
123 193 
124 125 
124 126 
124 137 
124 138 
124 142 
124 152 
124 163 
124 166 
124 176 
124 180 
124 189 
124 194 
125 126 
125 138 
125 139 
125 150 
125 153 
125 158 
125 167 
125 171 
125 181 
125 190 
125 195 
126 131 
126 140 
126 151 
126 154 
126 157 
126 168 
126 174 
126 182 
126 183 
126 196 
127 128 
127 129 
127 130 
127 131 
127 132 
127 133 
127 134 
127 135 
127 136 
127 137 
127 138 
127 139 
127 140 
127 141 
127 154 
127 155 
127 161 
127 169 
127 181 
127 183 
127 193 
128 129 
128 130 
128 131 
128 132 
128 133 
128 134 
128 135 
128 136 
128 137 
128 138 
128 139 
128 140 
128 141 
128 142 
128 156 
128 165 
128 170 
128 180 
128 184 
128 187 
129 130 
129 131 
129 132 
129 133 
129 134 
129 135 
129 136 
129 137 
129 138 
129 139 
129 140 
129 143 
129 146 
129 155 
129 157 
129 171 
129 182 
129 185 
129 195 
130 131 
130 132 
130 133 
130 134 
130 135 
130 136 
130 137 
130 138 
130 139 
130 140 
130 144 
130 153 
130 156 
130 158 
130 172 
130 177 
130 186 
130 196 
131 132 
131 133 
131 134 
131 135 
131 136 
131 137 
131 138 
131 139 
131 140 
131 145 
131 151 
131 157 
131 159 
131 173 
131 174 
131 183 
131 187 
132 133 
132 134 
132 135 
132 136 
132 137 
132 138 
132 139 
132 140 
132 145 
132 146 
132 160 
132 164 
132 174 
132 175 
132 184 
132 188 
133 134 
133 135 
133 136 
133 137 
133 138 
133 139 
133 140 
133 144 
133 147 
133 159 
133 161 
133 175 
133 178 
133 185 
133 189 
134 135 
134 136 
134 137 
134 138 
134 139 
134 140 
134 143 
134 148 
134 162 
134 168 
134 170 
134 176 
134 190 
134 194 
135 136 
135 137 
135 138 
135 139 
135 140 
135 148 
135 149 
135 163 
135 167 
135 169 
135 177 
135 186 
135 191 
136 137 
136 138 
136 139 
136 140 
136 147 
136 150 
136 162 
136 164 
136 173 
136 178 
136 188 
136 192 
137 138 
137 139 
137 140 
137 142 
137 151 
137 163 
137 165 
137 176 
137 179 
137 189 
137 193 
138 139 
138 140 
138 150 
138 152 
138 158 
138 166 
138 171 
138 180 
138 190 
138 194 
139 140 
139 152 
139 153 
139 160 
139 167 
139 172 
139 181 
139 191 
139 195 
140 149 
140 154 
140 166 
140 168 
140 179 
140 182 
140 192 
140 196 
141 142 
141 143 
141 144 
141 145 
141 146 
141 147 
141 148 
141 149 
141 150 
141 151 
141 152 
141 153 
141 154 
141 155 
141 165 
141 169 
141 180 
141 183 
141 187 
142 143 
142 144 
142 145 
142 146 
142 147 
142 148 
142 149 
142 150 
142 151 
142 152 
142 153 
142 154 
142 156 
142 163 
142 170 
142 176 
142 184 
142 189 
143 144 
143 145 
143 146 
143 147 
143 148 
143 149 
143 150 
143 151 
143 152 
143 153 
143 154 
143 157 
143 168 
143 170 
143 171 
143 185 
143 194 
144 145 
144 146 
144 147 
144 148 
144 149 
144 150 
144 151 
144 152 
144 153 
144 154 
144 158 
144 159 
144 172 
144 178 
144 185 
144 186 
145 146 
145 147 
145 148 
145 149 
145 150 
145 151 
145 152 
145 153 
145 154 
145 159 
145 164 
145 173 
145 175 
145 184 
145 187 
146 147 
146 148 
146 149 
146 150 
146 151 
146 152 
146 153 
146 154 
146 155 
146 160 
146 174 
146 182 
146 188 
146 195 
147 148 
147 149 
147 150 
147 151 
147 152 
147 153 
147 154 
147 161 
147 162 
147 173 
147 175 
147 188 
147 189 
148 149 
148 150 
148 151 
148 152 
148 153 
148 154 
148 162 
148 167 
148 169 
148 176 
148 186 
148 190 
149 150 
149 151 
149 152 
149 153 
149 154 
149 163 
149 166 
149 177 
149 179 
149 191 
149 192 
150 151 
150 152 
150 153 
150 154 
150 158 
150 164 
150 171 
150 178 
150 190 
150 192 
151 152 
151 153 
151 154 
151 157 
151 165 
151 174 
151 179 
151 183 
151 193 
152 153 
152 154 
152 160 
152 166 
152 172 
152 180 
152 191 
152 194 
153 154 
153 156 
153 167 
153 177 
153 181 
153 195 
153 196 
154 161 
154 168 
154 181 
154 182 
154 193 
154 196 
155 156 
155 157 
155 158 
155 159 
155 160 
155 161 
155 162 
155 163 
155 164 
155 165 
155 166 
155 167 
155 168 
155 169 
155 182 
155 183 
155 195 
156 157 
156 158 
156 159 
156 160 
156 161 
156 162 
156 163 
156 164 
156 165 
156 166 
156 167 
156 168 
156 170 
156 177 
156 184 
156 196 
157 158 
157 159 
157 160 
157 161 
157 162 
157 163 
157 164 
157 165 
157 166 
157 167 
157 168 
157 171 
157 174 
157 183 
157 185 
158 159 
158 160 
158 161 
158 162 
158 163 
158 164 
158 165 
158 166 
158 167 
158 168 
158 171 
158 172 
158 186 
158 190 
159 160 
159 161 
159 162 
159 163 
159 164 
159 165 
159 166 
159 167 
159 168 
159 173 
159 178 
159 185 
159 187 
160 161 
160 162 
160 163 
160 164 
160 165 
160 166 
160 167 
160 168 
160 172 
160 174 
160 188 
160 191 
161 162 
161 163 
161 164 
161 165 
161 166 
161 167 
161 168 
161 175 
161 181 
161 189 
161 193 
162 163 
162 164 
162 165 
162 166 
162 167 
162 168 
162 173 
162 176 
162 188 
162 190 
163 164 
163 165 
163 166 
163 167 
163 168 
163 176 
163 177 
163 189 
163 191 
164 165 
164 166 
164 167 
164 168 
164 175 
164 178 
164 184 
164 192 
165 166 
165 167 
165 168 
165 179 
165 180 
165 187 
165 193 
166 167 
166 168 
166 179 
166 180 
166 192 
166 194 
167 168 
167 169 
167 181 
167 186 
167 195 
168 170 
168 182 
168 194 
168 196 
169 170 
169 171 
169 172 
169 173 
169 174 
169 175 
169 176 
169 177 
169 178 
169 179 
169 180 
169 181 
169 182 
169 183 
169 186 
170 171 
170 172 
170 173 
170 174 
170 175 
170 176 
170 177 
170 178 
170 179 
170 180 
170 181 
170 182 
170 184 
170 194 
171 172 
171 173 
171 174 
171 175 
171 176 
171 177 
171 178 
171 179 
171 180 
171 181 
171 182 
171 185 
171 190 
172 173 
172 174 
172 175 
172 176 
172 177 
172 178 
172 179 
172 180 
172 181 
172 182 
172 186 
172 191 
173 174 
173 175 
173 176 
173 177 
173 178 
173 179 
173 180 
173 181 
173 182 
173 187 
173 188 
174 175 
174 176 
174 177 
174 178 
174 179 
174 180 
174 181 
174 182 
174 183 
174 188 
175 176 
175 177 
175 178 
175 179 
175 180 
175 181 
175 182 
175 184 
175 189 
176 177 
176 178 
176 179 
176 180 
176 181 
176 182 
176 189 
176 190 
177 178 
177 179 
177 180 
177 181 
177 182 
177 191 
177 196 
178 179 
178 180 
178 181 
178 182 
178 185 
178 192 
179 180 
179 181 
179 182 
179 192 
179 193 
180 181 
180 182 
180 187 
180 194 
181 182 
181 193 
181 195 
182 195 
182 196 
183 184 
183 185 
183 186 
183 187 
183 188 
183 189 
183 190 
183 191 
183 192 
183 193 
183 194 
183 195 
183 196 
184 185 
184 186 
184 187 
184 188 
184 189 
184 190 
184 191 
184 192 
184 193 
184 194 
184 195 
184 196 
185 186 
185 187 
185 188 
185 189 
185 190 
185 191 
185 192 
185 193 
185 194 
185 195 
185 196 
186 187 
186 188 
186 189 
186 190 
186 191 
186 192 
186 193 
186 194 
186 195 
186 196 
187 188 
187 189 
187 190 
187 191 
187 192 
187 193 
187 194 
187 195 
187 196 
188 189 
188 190 
188 191 
188 192 
188 193 
188 194 
188 195 
188 196 
189 190 
189 191 
189 192 
189 193 
189 194 
189 195 
189 196 
190 191 
190 192 
190 193 
190 194 
190 195 
190 196 
191 192 
191 193 
191 194 
191 195 
191 196 
192 193 
192 194 
192 195 
192 196 
193 194 
193 195 
193 196 
194 195 
194 196 
195 196 
